sat
(:max-memory          18.15
 :memory              18.00
 :nlsat-conflicts     1
 :nlsat-learned-added 1
 :nlsat-propagations  13
 :nlsat-stages        5
 :num-allocs          6328
 :rlimit-count        3586
 :time                0.00
 :total-time          0.01)
